
n_res = 6;
rcap = [51, 53, 59, 55, 846, 725];
rtype = [1, 1, 1, 1, 2, 2];
n_tasks = 50;
modes =  [{1, 2, 3, 4, 5, 6}, {7, 8, 9, 10, 11, 12}, {13, 14, 15, 16, 17, 18}, {19, 20, 21, 22, 23, 24}, {25, 26, 27, 28, 29, 30}, {31, 32, 33, 34, 35, 36}, {37, 38, 39, 40, 41, 42}, {43, 44, 45, 46, 47, 48}, {49, 50, 51, 52, 53, 54}, {55, 56, 57, 58, 59, 60}, {61, 62, 63, 64, 65, 66}, {67, 68, 69, 70, 71, 72}, {73, 74, 75, 76, 77, 78}, {79, 80, 81, 82, 83, 84}, {85, 86, 87, 88, 89, 90}, {91, 92, 93, 94, 95, 96}, {97, 98, 99, 100, 101, 102}, {103, 104, 105, 106, 107, 108}, {109, 110, 111, 112, 113, 114}, {115, 116, 117, 118, 119, 120}, {121, 122, 123, 124, 125, 126}, {127, 128, 129, 130, 131, 132}, {133, 134, 135, 136, 137, 138}, {139, 140, 141, 142, 143, 144}, {145, 146, 147, 148, 149, 150}, {151, 152, 153, 154, 155, 156}, {157, 158, 159, 160, 161, 162}, {163, 164, 165, 166, 167, 168}, {169, 170, 171, 172, 173, 174}, {175, 176, 177, 178, 179, 180}, {181, 182, 183, 184, 185, 186}, {187, 188, 189, 190, 191, 192}, {193, 194, 195, 196, 197, 198}, {199, 200, 201, 202, 203, 204}, {205, 206, 207, 208, 209, 210}, {211, 212, 213, 214, 215, 216}, {217, 218, 219, 220, 221, 222}, {223, 224, 225, 226, 227, 228}, {229, 230, 231, 232, 233, 234}, {235, 236, 237, 238, 239, 240}, {241, 242, 243, 244, 245, 246}, {247, 248, 249, 250, 251, 252}, {253, 254, 255, 256, 257, 258}, {259, 260, 261, 262, 263, 264}, {265, 266, 267, 268, 269, 270}, {271, 272, 273, 274, 275, 276}, {277, 278, 279, 280, 281, 282}, {283, 284, 285, 286, 287, 288}, {289, 290, 291, 292, 293, 294}, {295, 296, 297, 298, 299, 300}];
succ =  [{11, 9, 7, 6}, {17, 14, 13, 9, 7}, {12, 11, 10, 5}, {14, 13, 12, 11, 9}, {17, 15, 9}, {25, 21, 19, 17, 16, 14}, {18, 12, 10}, {25, 24, 19, 18, 16, 15}, {25, 24, 21, 19, 18, 16}, {25, 24, 21, 19, 16}, {25, 24, 16, 15}, {25, 21, 16}, {23, 15}, {24, 22, 18}, {28, 26, 22, 21, 20}, {28, 23, 22, 20}, {35, 33, 30, 29, 26, 22}, {28, 26, 20}, {35, 30, 29, 26}, {35, 33, 30, 29}, {35, 33, 27}, {31, 27}, {33, 26}, {33, 27}, {36, 34, 33, 32}, {39, 36, 34, 32}, {39, 36, 34, 32}, {39, 36, 35, 32}, {39, 34, 32}, {45, 44, 41, 39, 34}, {45, 44, 42, 41, 40, 37}, {45, 44, 42, 41, 40, 38}, {45, 42, 41, 40, 39, 38}, {42, 40, 37}, {41, 40, 37}, {49, 45, 42, 38}, {49, 38}, {50, 48, 47, 46}, {49, 48, 47, 46}, {49, 43}, {50, 49, 48}, {43}, {47, 46}, {48, 46}, {50}, {}, {}, {}, {}, {}];
n_opt = 300;
dur = [11, 12, 14, 15, 16, 29, 2, 3, 8, 15, 16, 19, 10, 17, 18, 19, 20, 23, 3, 7, 11, 12, 26, 29, 8, 11, 18, 23, 24, 25, 1, 12, 17, 26, 28, 29, 11, 12, 18, 21, 26, 30, 3, 12, 13, 16, 27, 29, 7, 11, 14, 19, 20, 24, 7, 8, 11, 15, 22, 29, 1, 11, 12, 13, 20, 30, 1, 10, 20, 26, 28, 30, 2, 10, 12, 15, 21, 27, 10, 16, 17, 18, 22, 23, 8, 13, 14, 18, 19, 20, 11, 14, 15, 18, 19, 21, 1, 6, 14, 20, 21, 30, 2, 3, 5, 23, 25, 29, 3, 11, 12, 20, 22, 23, 3, 8, 10, 14, 17, 27, 2, 9, 16, 21, 28, 29, 4, 7, 15, 18, 19, 28, 1, 8, 13, 23, 24, 25, 6, 7, 14, 15, 25, 26, 8, 10, 11, 22, 27, 29, 1, 2, 3, 4, 27, 29, 5, 7, 14, 18, 19, 30, 15, 16, 17, 20, 27, 30, 2, 5, 9, 20, 21, 29, 7, 26, 27, 28, 29, 30, 2, 6, 17, 20, 24, 29, 3, 4, 16, 18, 19, 20, 8, 13, 23, 27, 29, 30, 12, 14, 17, 19, 25, 26, 1, 8, 11, 12, 19, 27, 2, 3, 11, 14, 18, 23, 6, 18, 19, 20, 25, 27, 13, 14, 19, 25, 26, 28, 2, 18, 21, 22, 29, 30, 2, 3, 11, 14, 19, 20, 5, 11, 12, 15, 16, 29, 8, 10, 14, 17, 22, 28, 5, 6, 8, 9, 17, 19, 8, 13, 14, 15, 16, 20, 4, 15, 16, 18, 21, 28, 2, 7, 8, 21, 23, 25, 1, 7, 12, 13, 14, 16, 8, 10, 16, 18, 24, 25, 1, 2, 11, 17, 25, 29, 4, 14, 22, 24, 26, 30];
rreq = [|22, 21, 21, 20, 20, 20, 21, 19, 19, 17, 16, 14, 25, 23, 20, 19, 19, 17, 4, 4, 3, 3, 2, 2, 20, 20, 20, 20, 20, 20, 27, 27, 27, 27, 27, 27, 10, 10, 8, 6, 2, 1, 22, 18, 18, 16, 13, 13, 5, 5, 5, 4, 3, 3, 28, 25, 21, 18, 17, 14, 20, 18, 16, 15, 15, 14, 10, 9, 8, 8, 6, 5, 17, 17, 17, 16, 16, 15, 20, 16, 14, 10, 8, 5, 17, 16, 15, 15, 14, 14, 17, 15, 13, 10, 9, 7, 13, 12, 11, 9, 9, 8, 18, 15, 14, 11, 9, 7, 29, 29, 28, 28, 27, 27, 28, 19, 19, 14, 5, 3, 7, 5, 5, 4, 2, 2, 14, 12, 9, 9, 6, 4, 12, 11, 8, 7, 6, 3, 13, 13, 11, 6, 5, 4, 13, 12, 11, 10, 9, 8, 19, 15, 12, 10, 6, 4, 23, 17, 15, 11, 6, 4, 11, 11, 11, 11, 10, 10, 10, 10, 8, 5, 4, 3, 28, 27, 26, 24, 24, 23, 20, 16, 14, 13, 10, 6, 16, 15, 15, 15, 15, 15, 26, 26, 19, 16, 10, 7, 21, 18, 17, 13, 11, 10, 11, 9, 9, 9, 8, 7, 14, 13, 12, 10, 6, 4, 15, 13, 13, 12, 11, 11, 25, 22, 18, 16, 11, 10, 16, 16, 13, 11, 9, 8, 11, 10, 9, 9, 8, 8, 23, 18, 17, 14, 8, 6, 11, 10, 10, 10, 8, 8, 23, 20, 19, 15, 14, 12, 22, 20, 19, 16, 15, 13, 27, 25, 22, 18, 15, 14, 23, 19, 13, 10, 8, 6, 10, 8, 7, 6, 5, 5, 21, 21, 20, 20, 20, 19, 25, 23, 23, 22, 20, 20, 16, 13, 11, 11, 8, 5
 |18, 17, 17, 17, 17, 17, 28, 28, 27, 25, 23, 23, 6, 6, 6, 6, 5, 5, 5, 5, 5, 4, 3, 3, 18, 13, 11, 11, 7, 3, 26, 25, 25, 24, 24, 23, 22, 21, 20, 19, 19, 18, 29, 26, 23, 20, 19, 16, 29, 27, 25, 25, 23, 22, 11, 11, 10, 7, 7, 5, 11, 11, 8, 7, 7, 5, 15, 13, 12, 10, 9, 9, 19, 19, 18, 18, 18, 17, 14, 14, 14, 13, 13, 12, 26, 23, 16, 15, 9, 6, 21, 20, 19, 19, 17, 16, 9, 9, 9, 9, 9, 9, 20, 16, 16, 13, 11, 11, 24, 24, 21, 21, 17, 16, 10, 9, 7, 4, 4, 1, 28, 22, 17, 16, 10, 7, 23, 20, 17, 13, 8, 6, 26, 24, 24, 23, 22, 21, 27, 25, 22, 22, 19, 17, 20, 19, 19, 17, 17, 16, 25, 24, 24, 24, 23, 22, 20, 19, 17, 17, 16, 15, 10, 9, 8, 7, 7, 6, 28, 24, 17, 13, 9, 3, 27, 26, 26, 26, 25, 25, 20, 20, 20, 20, 20, 20, 11, 9, 9, 7, 6, 6, 12, 8, 7, 4, 2, 1, 8, 6, 4, 3, 2, 1, 26, 25, 24, 23, 22, 22, 27, 21, 17, 15, 11, 9, 12, 10, 8, 7, 6, 5, 19, 19, 17, 16, 16, 15, 27, 26, 22, 20, 18, 17, 16, 16, 16, 16, 15, 15, 25, 23, 22, 18, 16, 15, 23, 23, 23, 23, 23, 23, 11, 11, 11, 11, 11, 11, 25, 23, 21, 18, 18, 15, 24, 24, 22, 19, 17, 17, 2, 2, 2, 2, 2, 2, 8, 8, 6, 6, 4, 2, 12, 12, 11, 10, 9, 8, 11, 10, 10, 10, 9, 9, 8, 8, 5, 5, 4, 2
 |18, 14, 13, 11, 7, 4, 18, 18, 15, 12, 9, 8, 12, 10, 10, 8, 6, 5, 7, 7, 7, 7, 6, 6, 26, 24, 24, 22, 22, 21, 30, 23, 22, 14, 10, 8, 21, 18, 15, 14, 10, 5, 8, 7, 6, 4, 2, 2, 28, 28, 26, 26, 24, 23, 29, 22, 21, 19, 13, 10, 13, 13, 13, 13, 12, 12, 21, 19, 19, 18, 17, 17, 27, 25, 23, 22, 19, 17, 23, 21, 18, 16, 12, 12, 7, 6, 4, 4, 3, 2, 20, 16, 13, 9, 6, 3, 27, 26, 25, 24, 22, 20, 8, 8, 8, 8, 8, 8, 25, 22, 20, 17, 12, 11, 7, 6, 5, 5, 3, 3, 22, 19, 19, 18, 16, 14, 10, 8, 8, 6, 6, 5, 16, 16, 14, 9, 8, 6, 11, 10, 10, 10, 9, 9, 24, 24, 23, 23, 23, 22, 28, 22, 18, 17, 9, 6, 26, 22, 17, 17, 10, 9, 25, 24, 22, 20, 19, 18, 10, 9, 9, 9, 9, 9, 11, 11, 11, 10, 9, 9, 14, 14, 11, 6, 3, 1, 23, 19, 17, 17, 15, 11, 25, 20, 20, 17, 13, 13, 19, 16, 13, 11, 9, 9, 25, 23, 19, 15, 13, 8, 13, 11, 11, 11, 9, 9, 25, 23, 21, 19, 15, 13, 22, 20, 20, 18, 16, 15, 25, 20, 19, 15, 12, 10, 23, 21, 17, 13, 12, 5, 20, 19, 14, 14, 11, 8, 30, 26, 22, 18, 17, 14, 29, 22, 18, 14, 10, 5, 29, 29, 29, 29, 29, 29, 20, 20, 19, 19, 17, 17, 10, 9, 8, 8, 6, 6, 9, 9, 9, 9, 9, 9, 8, 7, 6, 4, 4, 3, 24, 24, 22, 21, 20, 20, 29, 23, 22, 15, 11, 6
 |30, 27, 26, 22, 20, 20, 24, 22, 14, 12, 5, 4, 24, 24, 24, 24, 24, 24, 25, 23, 23, 20, 19, 17, 15, 14, 11, 7, 4, 3, 20, 17, 16, 12, 10, 10, 17, 17, 15, 13, 13, 11, 28, 23, 22, 16, 12, 9, 29, 25, 25, 24, 22, 20, 26, 22, 18, 17, 16, 13, 28, 28, 26, 25, 24, 24, 26, 21, 18, 14, 7, 1, 27, 23, 23, 20, 19, 18, 6, 6, 6, 5, 4, 4, 27, 24, 22, 16, 13, 11, 26, 22, 21, 18, 13, 8, 26, 23, 23, 18, 18, 14, 26, 23, 23, 21, 19, 18, 10, 9, 9, 8, 7, 7, 30, 25, 21, 18, 10, 6, 18, 16, 13, 12, 11, 8, 28, 24, 19, 18, 11, 8, 22, 19, 18, 16, 15, 12, 11, 10, 9, 7, 7, 5, 5, 4, 4, 4, 3, 3, 28, 28, 28, 28, 27, 27, 26, 22, 18, 15, 8, 8, 25, 21, 17, 14, 8, 5, 1, 1, 1, 1, 1, 1, 8, 7, 6, 6, 6, 5, 10, 9, 9, 9, 9, 9, 16, 15, 15, 15, 15, 15, 19, 18, 18, 17, 17, 16, 28, 27, 27, 27, 26, 26, 13, 10, 8, 5, 3, 2, 12, 12, 8, 8, 5, 3, 27, 24, 20, 16, 13, 11, 10, 9, 8, 7, 7, 6, 29, 29, 29, 29, 29, 29, 8, 8, 8, 7, 7, 7, 19, 16, 16, 14, 14, 12, 9, 9, 8, 8, 8, 7, 15, 14, 11, 10, 8, 5, 22, 22, 21, 21, 20, 20, 22, 19, 17, 16, 13, 9, 21, 19, 16, 14, 13, 9, 15, 13, 10, 9, 7, 3, 26, 23, 19, 18, 14, 14, 29, 29, 29, 29, 29, 29, 11, 11, 11, 11, 11, 11
 |21, 17, 14, 13, 7, 5, 27, 24, 21, 19, 14, 13, 23, 23, 21, 20, 19, 17, 23, 22, 21, 21, 20, 19, 20, 15, 11, 10, 6, 3, 9, 9, 9, 9, 9, 9, 25, 22, 18, 14, 12, 10, 23, 19, 15, 14, 11, 6, 10, 10, 10, 10, 10, 10, 19, 16, 12, 10, 8, 5, 20, 20, 19, 18, 16, 16, 27, 25, 23, 23, 22, 19, 10, 9, 9, 8, 8, 7, 15, 14, 13, 12, 10, 10, 28, 26, 24, 22, 20, 18, 30, 29, 28, 27, 25, 24, 16, 16, 16, 15, 14, 14, 15, 13, 13, 11, 9, 5, 16, 14, 13, 11, 10, 7, 26, 26, 25, 25, 24, 23, 21, 17, 15, 12, 12, 8, 27, 22, 22, 17, 14, 12, 27, 23, 19, 14, 14, 11, 15, 14, 12, 9, 6, 5, 29, 29, 29, 28, 28, 28, 5, 5, 5, 5, 5, 5, 19, 15, 15, 11, 11, 7, 12, 12, 11, 10, 9, 7, 17, 17, 17, 17, 17, 17, 11, 11, 11, 10, 9, 9, 7, 5, 4, 3, 2, 2, 24, 23, 20, 19, 19, 17, 20, 18, 17, 17, 15, 15, 20, 18, 17, 13, 13, 11, 24, 24, 21, 19, 17, 17, 22, 18, 16, 14, 13, 10, 30, 23, 18, 14, 10, 7, 11, 9, 7, 6, 2, 2, 28, 25, 24, 21, 21, 18, 24, 23, 22, 19, 16, 14, 6, 6, 5, 4, 2, 2, 17, 16, 11, 11, 9, 4, 28, 24, 21, 21, 19, 17, 8, 6, 5, 3, 2, 1, 23, 19, 16, 16, 13, 8, 14, 10, 8, 6, 6, 4, 20, 19, 19, 18, 18, 17, 6, 6, 6, 5, 5, 5, 23, 18, 14, 13, 6, 6, 12, 10, 8, 7, 5, 2
 |20, 20, 20, 19, 19, 19, 29, 27, 27, 25, 25, 24, 16, 13, 9, 8, 4, 3, 13, 13, 12, 11, 11, 10, 23, 20, 15, 14, 10, 6, 7, 6, 6, 5, 4, 4, 22, 17, 14, 10, 8, 5, 7, 5, 5, 4, 4, 3, 13, 12, 10, 8, 8, 6, 12, 12, 10, 9, 7, 5, 26, 22, 16, 14, 8, 6, 23, 21, 18, 16, 16, 14, 8, 7, 6, 4, 3, 3, 25, 18, 14, 11, 9, 3, 9, 9, 9, 8, 7, 7, 9, 9, 9, 9, 9, 9, 10, 9, 8, 7, 6, 6, 16, 16, 16, 15, 15, 15, 8, 8, 8, 7, 7, 7, 18, 13, 11, 9, 5, 4, 16, 14, 11, 11, 8, 8, 23, 21, 18, 15, 12, 12, 27, 24, 16, 15, 8, 3, 8, 7, 7, 7, 7, 7, 18, 18, 16, 13, 10, 10, 15, 15, 13, 11, 11, 10, 14, 11, 11, 8, 6, 6, 24, 23, 23, 23, 23, 23, 20, 17, 16, 13, 11, 7, 12, 11, 10, 9, 7, 7, 13, 13, 12, 10, 10, 9, 22, 21, 20, 17, 14, 13, 21, 20, 18, 18, 16, 16, 26, 21, 17, 11, 9, 4, 16, 12, 11, 6, 6, 2, 18, 16, 11, 9, 7, 5, 7, 6, 6, 5, 4, 3, 5, 4, 3, 3, 1, 1, 7, 7, 5, 4, 3, 3, 19, 16, 13, 10, 7, 6, 28, 27, 27, 26, 24, 22, 17, 17, 17, 17, 17, 17, 10, 10, 8, 7, 5, 5, 28, 23, 17, 16, 10, 9, 23, 21, 20, 19, 17, 16, 18, 18, 16, 16, 14, 12, 10, 9, 9, 7, 6, 6, 7, 7, 7, 6, 6, 6, 11, 9, 7, 5, 4, 3, 27, 23, 23, 20, 20, 18|];